106156
0,63,72,12,36,17,64,49,3,52,62,38,51,40,77,68,24,41,14,60,5,78,27,82,7,58,67,43,21,4,18,30,23,47,20,57,73,31,81,74,39,10,32,26,15,37,34,29,1,54,22,11,2,42,56,33,48,46,59,80,71,50,6,55,16,76,8,70,53,45,44,79,35,65,19,66,75,25,61,69,13,28,9,0